c preprocessed version of 1fse_graph, 67 vertices, 730 edges
p td 67 730
65 66
64 66
64 65
63 65
63 64
62 65
62 64
62 63
61 64
61 63
61 62
60 64
60 63
60 62
60 61
59 66
59 65
59 64
59 63
59 62
59 61
59 60
58 66
58 65
58 64
58 63
58 62
58 61
58 60
58 59
57 64
57 63
57 61
57 60
57 59
57 58
56 66
56 64
56 61
56 60
56 59
56 58
56 57
55 66
55 65
55 64
55 63
55 60
55 59
55 58
55 57
55 56
54 64
54 63
54 61
54 59
54 58
54 57
54 56
54 55
53 61
53 60
53 57
53 56
53 55
53 54
52 66
52 64
52 59
52 57
52 56
52 55
52 54
52 53
51 66
51 64
51 58
51 56
51 55
51 54
51 53
51 52
50 57
50 56
50 55
50 54
50 53
50 52
50 51
49 57
49 56
49 54
49 53
49 52
49 51
49 50
48 64
48 63
48 61
48 60
48 58
48 57
48 56
48 54
48 53
48 52
48 51
48 50
48 49
47 61
47 57
47 54
47 53
47 49
47 48
46 64
46 63
46 61
46 60
46 58
46 57
46 56
46 55
46 54
46 53
46 52
46 51
46 50
46 49
46 48
46 47
45 63
45 61
45 58
45 57
45 54
45 48
45 47
45 46
44 54
44 49
44 48
44 47
44 46
44 45
43 58
43 57
43 55
43 54
43 53
43 52
43 51
43 50
43 49
43 48
43 47
43 46
43 45
43 44
42 64
42 63
42 61
42 58
42 57
42 55
42 54
42 51
42 48
42 46
42 45
42 44
42 43
41 54
41 46
41 45
41 44
41 43
41 42
40 54
40 51
40 50
40 49
40 45
40 44
40 43
40 42
40 41
39 64
39 63
39 58
39 55
39 54
39 53
39 52
39 51
39 50
39 49
39 48
39 46
39 44
39 43
39 42
39 41
39 40
38 54
38 51
38 45
38 42
38 41
38 40
38 39
37 44
37 42
37 41
37 40
37 39
37 38
36 54
36 51
36 50
36 44
36 43
36 41
36 40
36 39
36 38
36 37
35 55
35 54
35 51
35 43
35 42
35 40
35 39
35 38
35 37
35 36
34 41
34 39
34 38
34 37
34 36
34 35
33 41
33 40
33 38
33 37
33 36
33 35
33 34
32 51
32 39
32 37
32 36
32 35
32 34
32 33
31 38
31 37
31 36
31 35
31 34
31 33
31 32
30 39
30 38
30 37
30 35
30 34
30 33
30 32
30 31
29 35
29 34
29 31
29 30
28 39
28 38
28 35
28 34
28 30
28 29
27 38
27 35
27 30
27 29
27 28
26 35
26 32
26 30
26 29
26 28
26 27
25 39
25 38
25 36
25 35
25 34
25 33
25 32
25 31
25 30
25 29
25 28
25 27
25 26
24 55
24 54
24 51
24 42
24 39
24 38
24 36
24 35
24 34
24 32
24 30
24 28
24 27
24 26
24 25
23 35
23 28
23 27
23 26
23 25
23 24
22 36
22 35
22 32
22 27
22 26
22 25
22 24
22 23
21 55
21 54
21 51
21 43
21 42
21 40
21 39
21 38
21 37
21 36
21 35
21 33
21 32
21 31
21 30
21 28
21 26
21 25
21 24
21 23
21 22
20 51
20 39
20 36
20 35
20 32
20 27
20 26
20 25
20 24
20 23
20 22
20 21
19 51
19 39
19 35
19 28
19 27
19 26
19 24
19 23
19 22
19 21
19 20
18 66
18 55
18 52
18 23
18 20
18 19
17 66
17 65
17 64
17 55
17 28
17 27
17 24
17 23
17 19
17 18
16 66
16 65
16 64
16 63
16 59
16 58
16 56
16 55
16 54
16 52
16 51
16 42
16 39
16 19
16 18
16 17
15 66
15 64
15 63
15 59
15 58
15 56
15 55
15 54
15 52
15 51
15 50
15 46
15 43
15 42
15 39
15 38
15 36
15 35
15 32
15 28
15 27
15 25
15 24
15 23
15 21
15 20
15 19
15 18
15 17
15 16
14 64
14 55
14 51
14 39
14 38
14 35
14 30
14 29
14 28
14 27
14 26
14 25
14 24
14 23
14 22
14 21
14 20
14 19
14 18
14 17
14 16
14 15
13 66
13 65
13 64
13 63
13 59
13 58
13 55
13 54
13 42
13 35
13 28
13 27
13 24
13 19
13 17
13 16
13 15
13 14
12 66
12 65
12 64
12 63
12 61
12 59
12 58
12 57
12 56
12 55
12 54
12 53
12 52
12 51
12 48
12 46
12 45
12 43
12 42
12 41
12 40
12 39
12 38
12 35
12 24
12 21
12 17
12 16
12 15
12 14
12 13
11 64
11 58
11 55
11 54
11 51
11 46
11 43
11 42
11 41
11 40
11 39
11 38
11 37
11 36
11 35
11 34
11 32
11 30
11 28
11 27
11 25
11 24
11 23
11 21
11 20
11 19
11 16
11 15
11 14
11 13
11 12
10 64
10 39
10 38
10 35
10 34
10 30
10 29
10 28
10 27
10 25
10 24
10 23
10 19
10 17
10 15
10 14
10 13
10 12
10 11
9 65
9 64
9 63
9 61
9 58
9 57
9 55
9 54
9 46
9 42
9 38
9 28
9 16
9 14
9 13
9 12
9 11
9 10
8 64
8 63
8 61
8 58
8 57
8 55
8 54
8 51
8 46
8 45
8 44
8 43
8 42
8 41
8 40
8 39
8 38
8 37
8 35
8 34
8 30
8 28
8 24
8 15
8 12
8 11
8 10
8 9
7 41
7 39
7 38
7 37
7 35
7 34
7 30
7 29
7 28
7 27
7 25
7 24
7 21
7 15
7 14
7 11
7 10
7 9
7 8
6 63
6 38
6 34
6 30
6 28
6 14
6 13
6 11
6 10
6 9
6 8
6 7
5 45
5 42
5 41
5 38
5 37
5 34
5 30
5 28
5 12
5 11
5 10
5 9
5 8
5 7
5 6
4 64
4 63
4 62
4 61
4 58
4 57
4 55
4 54
4 51
4 48
4 46
4 45
4 43
4 42
4 41
4 39
4 38
4 16
4 15
4 13
4 12
4 11
4 10
4 9
4 8
4 7
4 6
4 5
3 63
3 61
3 58
3 46
3 45
3 42
3 41
3 9
3 8
3 6
3 5
3 4
2 63
2 61
2 58
2 57
2 54
2 47
2 46
2 45
2 44
2 43
2 42
2 41
2 12
2 9
2 8
2 5
2 4
2 3
1 63
1 62
1 61
1 60
1 58
1 57
1 46
1 9
1 4
1 3
1 2
0 61
0 60
0 57
0 47
0 3
0 2
0 1
